SystemLabel          teste
LatticeOrder         150
PolynomialDegree     800
Hopping             -0.2 eV
DisorderBroad        1.5 eV
EnergyMin           -5.0 eV
EnergyMax            5.0 eV
RescaleCutOff        0.01
NumThreads           4
LessMemory           F
