SystemLabel          teste
LatticeOrder         100
PolynomialDegree     99

