SystemLabel          teste
LatticeOrder         100
PolynomialDegree     200
Hopping             -1.0 eV
DisorderBroad        0.0 eV
EnergyMin           -5.0 eV
EnergyMax            5.0 eV
NEnergyGrid          400
RescaleCutOff        0.01
NumThreads           1
LessMemory           T
KernelLabel          jackson
LorentzResolution    4.0
